(set-info :origin "SVCOMP13 benchmarks generated by Arie Gurfinkel")
(set-logic HORN)
(declare-fun cp-rel-bb.i46.i
             (Real Real Real Real Real Real Real Bool Real Real Real Real Real)
             Bool)
(declare-fun cp-rel-entry () Bool)
(declare-fun cp-rel-__UFO__0
             (Real
              Real
              Real
              Real
              Real
              Real
              Real
              Real
              Real
              Real
              Real
              Real
              Bool
              Real
              Real
              Real
              Real
              Real
              Bool)
             Bool)
(declare-fun cp-rel-bb.i46.i.outer10 (Real Real Real Real Real Real) Bool)
(declare-fun cp-rel-UnifiedReturnBlock () Bool)
(declare-fun cp-rel-bb.i (Real Real Real Real Real Real) Bool)
(assert |cp-rel-entry|)
(assert (forall ((?A Real) (?B Real) (?C Real) (?D Real) (?E Real) (?F Real) (?G Bool) )(let (($x543677 (= ?G true)))
(let (($x89463 (and |cp-rel-entry| (<= ?F 0.0) (>= ?E 0.0) (<= ?E 0.0) (>= ?D 0.0) (<= ?D 0.0) (>= ?C 0.0) (<= ?C 0.0) (>= ?B 0.0) (<= ?B 0.0) (>= ?A 0.0) (<= ?A 0.0) $x543677 (>= ?F 0.0))))
(=> $x89463 (|cp-rel-bb.i| ?A ?B ?C ?D ?E ?F)))))
)
(assert (forall ((?A Real) (?B Real) (?C Real) (?D Real) (?E Real) (?F Real) )(=> false (|cp-rel-bb.i| ?A ?B ?C ?D ?E ?F)))
)
(assert (forall ((?A Real) (?B Real) (?C Real) (?D Real) (?E Real) (?F Real) (?G Real) (?H Real) (?I Real) (?J Real) (?K Real) (?L Real) (?M Bool) )(let (($x809106 (|cp-rel-bb.i46.i.outer10| ?G ?H ?I ?J ?K ?L)))
(let (($x543677 (= ?M true)))
(let (($x848818 (and (|cp-rel-bb.i| ?A ?B ?C ?D ?E ?F) (<= ?L ?F) (>= ?K ?E) (<= ?K ?E) (>= ?J ?D) (<= ?J ?D) (>= ?I ?C) (<= ?I ?C) (>= ?H ?B) (<= ?H ?B) (>= ?G ?A) (<= ?G ?A) $x543677 (>= ?L ?F))))
(=> $x848818 $x809106)))))
)
(assert (forall ((?A Real) (?B Real) (?C Real) (?D Real) (?E Real) (?F Real) (?G Real) (?H Bool) (?I Real) (?J Real) (?K Real) (?L Real) (?M Real) (?N Bool) (?O Bool) (?P Bool) (?Q Bool) (?R Bool) (?S Real) (?T Real) (?U Real) (?V Real) (?W Real) (?X Real) (?Y Bool) (?Z Bool) (?A1 Bool) (?B1 Bool) (?C1 Bool) (?D1 Bool) (?E1 Bool) (?F1 Bool) (?G1 Bool) (?H1 Bool) (?I1 Bool) (?J1 Bool) (?K1 Bool) (?L1 Bool) (?M1 Real) (?N1 Real) (?O1 Real) (?P1 Real) (?Q1 Real) (?R1 Real) (?S1 Real) (?T1 Bool) (?U1 Bool) (?V1 Bool) (?W1 Bool) (?X1 Bool) (?Y1 Bool) (?Z1 Bool) (?A2 Bool) (?B2 Bool) (?C2 Bool) (?D2 Real) (?E2 Real) (?F2 Real) (?G2 Real) (?H2 Bool) (?I2 Bool) (?J2 Real) (?K2 Real) (?L2 Bool) )(let (($x235645 (not ?A1)))
(let (($x179571 (or $x235645 ?B1)))
(let (($x291977 (or (not ?G1) (and ?D1 ?H1 (not ?I1)) (and ?A1 ?J1 (not ?F1)))))
(let (($x416280 (and ?N ?U1 ?R (<= ?M1 ?I) (>= ?M1 ?I) (<= ?O1 ?J) (>= ?O1 ?J) (<= ?P1 ?K) (>= ?P1 ?K) (<= ?Q1 ?L) (>= ?Q1 ?L) (<= ?S1 ?M) (>= ?S1 ?M))))
(let (($x113552 (and ?Y ?T1 ?C1 (<= ?M1 ?I) (>= ?M1 ?I) (<= ?O1 ?J) (>= ?O1 ?J) (<= ?P1 ?K) (>= ?P1 ?K) (<= ?Q1 ?L) (>= ?Q1 ?L) (<= ?S1 ?M) (>= ?S1 ?M))))
(let (($x603438 (and ?G1 ?L1 (<= ?M1 ?N1) (>= ?M1 ?N1) (<= ?O1 ?N1) (>= ?O1 ?N1) (<= ?P1 2.0) (>= ?P1 2.0) (<= ?Q1 ?R1) (>= ?Q1 ?R1) (<= ?S1 1.0) (>= ?S1 1.0))))
(let (($x417696 (not ?K1)))
(let (($x582722 (or $x417696 (and ?L1 (not ?T1) (not ?U1)) (and ?T1 (not ?L1) (not ?U1)) (and ?U1 (not ?L1) (not ?T1)))))
(let (($x252274 (not ?Y1)))
(let (($x821336 (or $x252274 ?Z1)))
(let (($x462229 (not ?B2)))
(let (($x402698 (or $x462229 ?C2)))
(let (($x432103 (and ?Y1 (not ?H) (<= ?S ?M1) (>= ?S ?M1) (<= ?T ?O1) (>= ?T ?O1) (<= ?U ?P1) (>= ?U ?P1) (<= ?V 2.0) (>= ?V 2.0) (<= ?W 1.0) (>= ?W 1.0) (<= ?X ?S1) (>= ?X ?S1))))
(let (($x277254 (and ?B2 (<= ?S ?D2) (>= ?S ?D2) (<= ?T ?O1) (>= ?T ?O1) (<= ?U ?E2) (>= ?U ?E2) (<= ?V 2.0) (>= ?V 2.0) (<= ?W 1.0) (>= ?W 1.0) (<= ?X ?S1) (>= ?X ?S1))))
(let (($x98092 (|cp-rel-bb.i46.i| ?A ?B ?C ?D ?E ?F ?G ?H ?I ?J ?K ?L ?M)))
(let (($x869990 (and $x98092 (= ?L2 (= ?S1 1.0)) (= ?D2 (+ 1.0 ?M1)) (= ?A2 (= ?K2 0.0)) (= ?X1 (= ?Q1 0.0)) (= ?R1 (ite ?H 0.0 ?L)) (= ?I1 (or ?I2 ?H2)) (= ?I2 (= ?J2 5.0)) (= ?H2 (not (= ?G2 ?I))) (= ?G2 (+ 1.0 ?J)) (= ?F1 (= ?M 1.0)) (= ?R (= ?L 0.0)) (= ?C1 (= ?F2 0.0)) (= ?Q (= ?K 0.0)) (or $x277254 $x432103) $x402698 (or $x462229 (and ?Y1 ?C2 ?H)) $x821336 (or $x252274 (and ?V1 ?Z1 (not ?A2))) (or (not ?V1) ?W1) (or (not ?V1) (and ?K1 ?W1 ?X1)) $x582722 (or $x417696 $x603438 $x113552 $x416280) (or (not ?G1) (and ?H1 (not ?J1)) (and ?J1 (not ?H1))) $x291977 (or (not ?D1) ?E1) (or (not ?D1) (and ?A1 ?E1 ?F1)) $x179571 (or $x235645 (and ?Y ?B1 (not ?C1))) (or (not ?N) ?P) (or (not ?N) (and ?O ?P (not ?Q))) (or (not ?Y) ?Z) (or (not ?Y) (and ?O ?Z ?Q)) (= ?E2 (ite ?L2 0.0 ?P1)))))
(=> $x869990 (|cp-rel-bb.i46.i.outer10| ?S ?T ?U ?V ?W ?X)))))))))))))))))))
)
(assert (forall ((?A Real) (?B Real) (?C Real) (?D Real) (?E Real) (?F Real) (?G Bool) (?H Real) (?I Real) (?J Real) (?K Real) (?L Real) (?M Real) (?N Real) (?O Real) (?P Real) (?Q Real) (?R Real) (?S Bool) )(let (($x263883 (|cp-rel-bb.i46.i| ?A ?B ?C ?D ?E ?F ?Q ?G ?H ?I ?J ?K ?L)))
(let (($x543677 (= ?S true)))
(let (($x809106 (|cp-rel-bb.i46.i.outer10| ?M ?N ?O ?P ?Q ?R)))
(let (($x455139 (and $x809106 (>= ?L ?R) (<= ?L ?R) (>= ?K ?P) (<= ?K ?P) (>= ?J ?O) (<= ?J ?O) (>= ?I ?N) (<= ?I ?N) (>= ?H ?M) (<= ?H ?M) $x543677 (= ?G (= ?Q 1.0)))))
(=> $x455139 $x263883))))))
)
(assert (forall ((?A Real) (?B Real) (?C Real) (?D Real) (?E Real) (?F Real) (?G Real) (?H Bool) (?I Real) (?J Real) (?K Real) (?L Real) (?M Real) (?N Bool) (?O Bool) (?P Bool) (?Q Bool) (?R Bool) (?S Bool) (?T Bool) (?U Bool) (?V Bool) (?W Bool) (?X Bool) (?Y Bool) (?Z Bool) (?A1 Bool) (?B1 Bool) (?C1 Bool) (?D1 Bool) (?E1 Bool) (?F1 Bool) (?G1 Real) (?H1 Real) (?I1 Real) (?J1 Real) (?K1 Real) (?L1 Real) (?M1 Real) (?N1 Bool) (?O1 Bool) (?P1 Bool) (?Q1 Bool) (?R1 Bool) (?S1 Bool) (?T1 Real) (?U1 Real) (?V1 Bool) (?W1 Bool) (?X1 Real) (?Y1 Real) (?Z1 Real) (?A2 Real) (?B2 Real) (?C2 Real) (?D2 Real) )(let (($x322754 (|cp-rel-bb.i46.i| ?A ?B ?C ?D ?E ?F ?G ?H ?Z1 ?A2 ?B2 ?C2 ?D2)))
(let (($x235645 (not ?S)))
(let (($x179571 (or $x235645 ?T)))
(let (($x431046 (not ?A1)))
(let (($x837379 (and ?N ?O1 ?R (<= ?G1 ?I) (>= ?G1 ?I) (<= ?I1 ?J) (>= ?I1 ?J) (<= ?J1 ?K) (>= ?J1 ?K) (<= ?K1 ?L) (>= ?K1 ?L) (<= ?M1 ?M) (>= ?M1 ?M))))
(let (($x103990 (and ?S ?N1 ?W (<= ?G1 ?I) (>= ?G1 ?I) (<= ?I1 ?J) (>= ?I1 ?J) (<= ?J1 ?K) (>= ?J1 ?K) (<= ?K1 ?L) (>= ?K1 ?L) (<= ?M1 ?M) (>= ?M1 ?M))))
(let (($x362796 (and ?A1 ?F1 (<= ?G1 ?H1) (>= ?G1 ?H1) (<= ?I1 ?H1) (>= ?I1 ?H1) (<= ?J1 2.0) (>= ?J1 2.0) (<= ?K1 ?L1) (>= ?K1 ?L1) (<= ?M1 1.0) (>= ?M1 1.0))))
(let (($x528473 (or (not ?E1) (and ?F1 (not ?N1) (not ?O1)) (and ?N1 (not ?F1) (not ?O1)) (and ?O1 (not ?F1) (not ?N1)))))
(let (($x501674 (and ?E1 (not ?R1) (<= ?Z1 ?G1) (>= ?Z1 ?G1) (<= ?A2 ?I1) (>= ?A2 ?I1) (<= ?B2 ?J1) (>= ?B2 ?J1) (<= ?C2 ?K1) (>= ?C2 ?K1) (<= ?D2 ?M1) (>= ?D2 ?M1))))
(let (($x52254 (and ?P1 ?S1 (<= ?Z1 ?G1) (>= ?Z1 ?G1) (<= ?A2 ?I1) (>= ?A2 ?I1) (<= ?B2 ?J1) (>= ?B2 ?J1) (<= ?C2 ?K1) (>= ?C2 ?K1) (<= ?D2 ?M1) (>= ?D2 ?M1))))
(let (($x371571 (|cp-rel-bb.i46.i| ?A ?B ?C ?D ?E ?F ?G ?H ?I ?J ?K ?L ?M)))
(let (($x506823 (and $x371571 (= ?R1 (= ?K1 0.0)) (= ?L1 (ite ?H 0.0 ?L)) (= ?C1 (or ?W1 ?V1)) (= ?W1 (= ?X1 5.0)) (= ?V1 (not (= ?U1 ?I))) (= ?U1 (+ 1.0 ?J)) (= ?Z (= ?M 1.0)) (= ?R (= ?L 0.0)) (= ?W (= ?T1 0.0)) (= ?Q (= ?K 0.0)) (or $x52254 $x501674) (or (not ?P1) ?Q1) (or (not ?P1) (and ?E1 ?Q1 ?R1)) $x528473 (or (not ?E1) $x362796 $x103990 $x837379) (or $x431046 (and ?B1 (not ?D1)) (and ?D1 (not ?B1))) (or $x431046 (and ?X ?B1 (not ?C1)) (and ?U ?D1 (not ?Z))) (or (not ?X) ?Y) (or (not ?X) (and ?U ?Y ?Z)) (or (not ?U) ?V) (or (not ?U) (and ?S ?V (not ?W))) (or (not ?N) ?P) (or (not ?N) (and ?O ?P (not ?Q))) $x179571 (or $x235645 (and ?O ?T ?Q)) (= ?S1 (= ?Y1 0.0)))))
(=> $x506823 $x322754))))))))))))))
)
(assert (forall ((?A Real) (?B Real) (?C Real) (?D Real) (?E Real) (?F Real) (?G Real) (?H Bool) (?I Real) (?J Real) (?K Real) (?L Real) (?M Real) (?N Bool) (?O Bool) (?P Bool) (?Q Bool) (?R Bool) (?S Bool) (?T Bool) (?U Bool) (?V Bool) (?W Bool) (?X Bool) (?Y Bool) (?Z Bool) (?A1 Real) (?B1 Real) (?C1 Real) (?D1 Real) (?E1 Real) )(let (($x893447 (|cp-rel-__UFO__0| ?A ?B ?C ?D ?E ?F ?A1 ?B1 ?C1 ?D1 ?G ?E1 ?H ?I ?J ?K ?L ?M ?W)))
(let (($x252274 (not ?R)))
(let (($x821336 (or $x252274 ?S)))
(let (($x462229 (not ?U)))
(let (($x402698 (or $x462229 ?V)))
(let (($x782524 (|cp-rel-bb.i46.i| ?A ?B ?C ?D ?E ?F ?G ?H ?I ?J ?K ?L ?M)))
(let (($x259919 (and $x782524 (= ?Q (= ?K 0.0)) (not (= ?W true)) (= ?X true) (or (not ?X) (and ?Y (not ?Z)) (and ?Z (not ?Y))) (or (not ?X) (and ?U ?Y) (and ?R ?Z ?W)) $x402698 (or $x462229 (and ?R ?V (not ?W))) $x821336 (or $x252274 (and ?N ?S (not ?T))) (or (not ?N) ?P) (or (not ?N) (and ?O ?P (not ?Q))) (= ?T (= ?L 0.0)))))
(=> $x259919 $x893447)))))))))
)
(assert (forall ((?A Real) (?B Real) (?C Real) (?D Real) (?E Real) (?F Real) (?G Real) (?H Bool) (?I Bool) (?J Real) (?K Real) (?L Real) (?M Real) (?N Real) (?O Real) (?P Real) (?Q Real) (?R Real) (?S Real) (?T Bool) )(let (($x318311 (|cp-rel-__UFO__0| ?A ?B ?C ?D ?E ?F ?J ?K ?L ?M ?G ?N ?H ?O ?P ?Q ?R ?S ?I)))
(=> (and $x318311 (= ?T true)) $x318311)))
)
(assert (forall ((?A Real) (?B Real) (?C Real) (?D Real) (?E Real) (?F Real) (?G Real) (?H Bool) (?I Real) (?J Real) (?K Real) (?L Real) (?M Real) (?N Bool) (?O Bool) (?P Bool) (?Q Bool) (?R Bool) (?S Bool) (?T Bool) (?U Bool) (?V Bool) (?W Bool) (?X Bool) (?Y Real) (?Z Real) (?A1 Bool) (?B1 Bool) (?C1 Real) )(let (($x252274 (not ?P)))
(let (($x821336 (or $x252274 ?Q)))
(let (($x853090 (= ?U true)))
(let (($x342539 (|cp-rel-bb.i46.i| ?A ?B ?C ?D ?E ?F ?G ?H ?I ?J ?K ?L ?M)))
(let (($x516544 (and $x342539 (= ?B1 (= ?C1 5.0)) (= ?A1 (not (= ?Z ?I))) (= ?Z (+ 1.0 ?J)) (= ?W (= ?M 1.0)) (= ?T (= ?Y 0.0)) (= ?O (= ?K 0.0)) (= ?X true) $x853090 (or (not ?U) ?V) (or (not ?U) (and ?R ?V ?W)) (or (not ?R) ?S) (or (not ?R) (and ?P ?S (not ?T))) $x821336 (or $x252274 (and ?N ?Q ?O)) (= ?X (or ?B1 ?A1)))))
(=> $x516544 |cp-rel-UnifiedReturnBlock|)))))))
)
(assert (not cp-rel-UnifiedReturnBlock))
(check-sat)
